; benchmark generated from python API
(set-info :status unknown)
(declare-fun DISJ_W_S1_R_S1 () Bool)
(declare-fun W_S1_V4 () Bool)
(declare-fun W_S1_V2 () Bool)
(declare-fun W_S1_V6 () Bool)
(declare-fun W_S1_V3 () Bool)
(declare-fun W_S1_V1 () Bool)
(declare-fun R_S1_V6 () Bool)
(declare-fun R_S1_V4 () Bool)
(declare-fun R_S1_V5 () Bool)
(declare-fun R_S1_V2 () Bool)
(declare-fun R_S1_V3 () Bool)
(declare-fun R_S1_V1 () Bool)
(declare-fun R_E2_V1 () Bool)
(declare-fun R_E1_V6 () Bool)
(declare-fun R_E1_V4 () Bool)
(declare-fun R_E1_V5 () Bool)
(declare-fun R_E1_V2 () Bool)
(declare-fun DISJ_W_S1_R_E1 () Bool)
(declare-fun R_E2_V6 () Bool)
(declare-fun R_E2_V4 () Bool)
(declare-fun R_E2_V5 () Bool)
(declare-fun R_E2_V2 () Bool)
(declare-fun DISJ_W_S1_R_E2 () Bool)
(declare-fun W_S1_V5 () Bool)
(declare-fun R_E1_V3 () Bool)
(declare-fun R_E1_V1 () Bool)
(declare-fun R_E2_V3 () Bool)
(assert
 (let (($x3885 (not (and (not W_S1_V4) DISJ_W_S1_R_S1))))
 (let (($x1795 (not (and (not W_S1_V2) DISJ_W_S1_R_S1))))
 (let (($x28 (forall ((V2_0 Int) )(forall ((V5_0 Int) )(forall ((V4_0 Int) )(forall ((V6_0 Int) )(forall ((MW_S1_V1 Bool) )(forall ((MW_S1_V3 Bool) )(forall ((MW_S1_V2 Bool) )(forall ((MW_S1_V5 Bool) )(forall ((MW_S1_V4 Bool) )(forall ((MW_S1_V6 Bool) )(forall ((S1_V1_!5249 Int) )(forall ((S1_V1_!5255 Int) )(forall ((S1_V1_!5264 Int) )(forall ((S1_V1_!5270 Int) )(forall ((S1_V3_!5250 Int) )(forall ((S1_V3_!5256 Int) )(forall ((S1_V3_!5265 Int) )(forall ((S1_V3_!5271 Int) )(forall ((S1_V2_!5251 Int) )(forall ((S1_V2_!5257 Int) )(forall ((S1_V2_!5266 Int) )(forall ((S1_V2_!5272 Int) )(forall ((E1_!5246 Int) )(forall ((E1_!5261 Int) )(forall ((E1_!5263 Int) )(forall ((S1_V5_!5252 Int) )(forall ((S1_V5_!5258 Int) )(forall ((S1_V5_!5267 Int) )(forall ((S1_V5_!5273 Int) )(forall ((E2_!5247 Int) )(forall ((E2_!5248 Int) )(forall ((E2_!5262 Int) )(forall ((S1_V4_!5253 Int) )(forall ((S1_V4_!5259 Int) )(forall ((S1_V4_!5268 Int) )(forall ((S1_V4_!5274 Int) )(forall ((S1_V6_!5254 Int) )(forall ((S1_V6_!5260 Int) )(forall ((S1_V6_!5269 Int) )(forall ((S1_V6_!5275 Int) )(let ((?x30 (ite MW_S1_V3 S1_V3_!5271 E2_!5262)))
 (let ((?x2562 (ite MW_S1_V3 S1_V3_!5250 E2_!5248)))
 (let ((?x5769 (+ 1 ?x2562)))
 (let ((?x3373 (ite MW_S1_V3 S1_V3_!5256 ?x5769)))
 (let ((?x3345 (ite MW_S1_V1 S1_V1_!5264 E1_!5263)))
 (let ((?x274 (+ 1 ?x3345)))
 (let ((?x2080 (ite MW_S1_V1 S1_V1_!5270 ?x274)))
 (let ((?x1434 (ite MW_S1_V1 S1_V1_!5255 E1_!5246)))
 (let (($x3394 (and (= ?x1434 ?x2080) (= ?x3373 ?x30) (= (ite MW_S1_V2 S1_V2_!5257 V2_0) (ite MW_S1_V2 S1_V2_!5272 V2_0)) (= (ite MW_S1_V5 S1_V5_!5258 V5_0) (ite MW_S1_V5 S1_V5_!5273 V5_0)) (= (ite MW_S1_V4 S1_V4_!5259 V4_0) (ite MW_S1_V4 S1_V4_!5274 V4_0)) (= (ite MW_S1_V6 S1_V6_!5260 V6_0) (ite MW_S1_V6 S1_V6_!5275 V6_0)))))
 (let (($x4851 (and (not (<= V4_0 E2_!5247)) (not (<= V2_0 E1_!5246)) (not (<= V4_0 E2_!5248)) (not (<= (ite MW_S1_V4 S1_V4_!5253 V4_0) ?x5769)) (>= ?x3373 (+ (- 1) (ite MW_S1_V4 S1_V4_!5259 V4_0))) (>= ?x1434 (+ (- 1) (ite MW_S1_V2 S1_V2_!5257 V2_0))) (not (<= V2_0 E1_!5261)) (not (<= V4_0 E2_!5262)) (not (<= V2_0 E1_!5263)) (not (<= (ite MW_S1_V2 S1_V2_!5266 V2_0) ?x274)) (>= ?x2080 (+ (- 1) (ite MW_S1_V2 S1_V2_!5272 V2_0))) (>= ?x30 (+ (- 1) (ite MW_S1_V4 S1_V4_!5274 V4_0))))))
 (let (($x1405 (= S1_V6_!5269 S1_V6_!5275)))
 (let (($x366 (not R_S1_V6)))
 (let (($x712 (or $x366 (= V6_0 (ite MW_S1_V6 S1_V6_!5269 V6_0)))))
 (let (($x253 (not R_S1_V4)))
 (let (($x1550 (or $x253 (= V4_0 (ite MW_S1_V4 S1_V4_!5268 V4_0)))))
 (let (($x82 (not R_S1_V5)))
 (let (($x3005 (or $x82 (= V5_0 (ite MW_S1_V5 S1_V5_!5267 V5_0)))))
 (let (($x4928 (not R_S1_V2)))
 (let (($x4035 (or $x4928 (= V2_0 (ite MW_S1_V2 S1_V2_!5266 V2_0)))))
 (let (($x2892 (and (or (not R_S1_V1) (= E1_!5263 ?x274)) (or (not R_S1_V3) (= E2_!5262 (ite MW_S1_V3 S1_V3_!5265 E2_!5262))) $x4035 $x3005 $x1550 $x712)))
 (let (($x1834 (not $x2892)))
 (let (($x2255 (= S1_V6_!5260 S1_V6_!5275)))
 (let (($x1284 (and (or (not R_S1_V1) (= (ite MW_S1_V1 S1_V1_!5249 E1_!5246) ?x274)) (or (not R_S1_V3) (= ?x2562 (+ (- 1) (ite MW_S1_V3 S1_V3_!5265 E2_!5262)))) (or $x4928 (= (ite MW_S1_V2 S1_V2_!5251 V2_0) (ite MW_S1_V2 S1_V2_!5266 V2_0))) (or $x82 (= (ite MW_S1_V5 S1_V5_!5252 V5_0) (ite MW_S1_V5 S1_V5_!5267 V5_0))) (or $x253 (= (ite MW_S1_V4 S1_V4_!5253 V4_0) (ite MW_S1_V4 S1_V4_!5268 V4_0))) (or $x366 (= (ite MW_S1_V6 S1_V6_!5254 V6_0) (ite MW_S1_V6 S1_V6_!5269 V6_0))))))
 (let (($x3791 (not $x1284)))
 (let (($x3441 (= S1_V6_!5260 S1_V6_!5269)))
 (let (($x2683 (or $x366 (= (ite MW_S1_V6 S1_V6_!5254 V6_0) V6_0))))
 (let (($x922 (or $x253 (= (ite MW_S1_V4 S1_V4_!5253 V4_0) V4_0))))
 (let (($x4926 (or $x82 (= (ite MW_S1_V5 S1_V5_!5252 V5_0) V5_0))))
 (let (($x3465 (or $x4928 (= (ite MW_S1_V2 S1_V2_!5251 V2_0) V2_0))))
 (let (($x5101 (and (or (not R_S1_V1) (= (ite MW_S1_V1 S1_V1_!5249 E1_!5246) E1_!5263)) (or (not R_S1_V3) (= ?x2562 (+ (- 1) E2_!5262))) $x3465 $x4926 $x922 $x2683)))
 (let (($x3516 (not $x5101)))
 (let (($x2743 (and (or (not R_S1_V1) (= (ite MW_S1_V1 S1_V1_!5249 E1_!5246) E1_!5246)) (or (not R_S1_V3) (= ?x2562 (+ (- 1) E2_!5248))) $x3465 $x4926 $x922 $x2683)))
 (let (($x520 (not $x2743)))
 (let (($x1778 (and (or (not R_S1_V1) (= E1_!5246 ?x274)) (or (not R_S1_V3) (= E2_!5248 (ite MW_S1_V3 S1_V3_!5265 E2_!5262))) $x4035 $x3005 $x1550 $x712)))
 (let (($x2876 (not $x1778)))
 (let (($x231 (and (or (not R_S1_V1) (= E1_!5246 E1_!5263)) (or (not R_S1_V3) (= E2_!5248 E2_!5262)))))
 (let (($x1224 (not $x231)))
 (let (($x2407 (= S1_V4_!5274 S1_V4_!5268)))
 (let (($x352 (or $x366 (= (ite MW_S1_V6 S1_V6_!5269 V6_0) V6_0))))
 (let (($x3431 (or $x253 (= (ite MW_S1_V4 S1_V4_!5268 V4_0) V4_0))))
 (let (($x1139 (or $x82 (= (ite MW_S1_V5 S1_V5_!5267 V5_0) V5_0))))
 (let (($x1593 (or $x4928 (= (ite MW_S1_V2 S1_V2_!5266 V2_0) V2_0))))
 (let (($x2354 (and (or (not R_S1_V1) (= ?x3345 (+ (- 1) E1_!5263))) (or (not R_S1_V3) (= (ite MW_S1_V3 S1_V3_!5265 E2_!5262) E2_!5262)) $x1593 $x1139 $x3431 $x352)))
 (let (($x5173 (not $x2354)))
 (let (($x5748 (and (or (not R_S1_V1) (= ?x3345 (+ (- 1) (ite MW_S1_V1 S1_V1_!5249 E1_!5246)))) (or (not R_S1_V3) (= (ite MW_S1_V3 S1_V3_!5265 E2_!5262) ?x5769)) (or $x4928 (= (ite MW_S1_V2 S1_V2_!5266 V2_0) (ite MW_S1_V2 S1_V2_!5251 V2_0))) (or $x82 (= (ite MW_S1_V5 S1_V5_!5267 V5_0) (ite MW_S1_V5 S1_V5_!5252 V5_0))) (or $x253 (= (ite MW_S1_V4 S1_V4_!5268 V4_0) (ite MW_S1_V4 S1_V4_!5253 V4_0))) (or $x366 (= (ite MW_S1_V6 S1_V6_!5269 V6_0) (ite MW_S1_V6 S1_V6_!5254 V6_0))))))
 (let (($x3063 (not $x5748)))
 (let (($x2531 (and (or (not R_S1_V1) (= ?x3345 (+ (- 1) E1_!5246))) (or (not R_S1_V3) (= (ite MW_S1_V3 S1_V3_!5265 E2_!5262) E2_!5248)) $x1593 $x1139 $x3431 $x352)))
 (let (($x386 (not $x2531)))
 (let (($x5973 (and (or (not R_S1_V1) (= E1_!5246 (ite MW_S1_V1 S1_V1_!5249 E1_!5246))) (or (not R_S1_V3) (= E2_!5248 ?x5769)) (or $x4928 (= V2_0 (ite MW_S1_V2 S1_V2_!5251 V2_0))) (or $x82 (= V5_0 (ite MW_S1_V5 S1_V5_!5252 V5_0))) (or $x253 (= V4_0 (ite MW_S1_V4 S1_V4_!5253 V4_0))) (or $x366 (= V6_0 (ite MW_S1_V6 S1_V6_!5254 V6_0))))))
 (let (($x2012 (not $x5973)))
 (let (($x3229 (and (or (not R_S1_V1) (= E1_!5263 E1_!5246)) (or (not R_S1_V3) (= E2_!5262 E2_!5248)))))
 (let (($x955 (= E1_!5263 E1_!5261)))
 (let (($x6062 (= E1_!5263 E1_!5246)))
 (let (($x549 (= E1_!5246 E1_!5261)))
 (let (($x2756 (and (or $x2012 (= S1_V1_!5249 S1_V1_!5255)) (or $x1224 (= S1_V1_!5249 S1_V1_!5264)) (or $x2876 (= S1_V1_!5249 S1_V1_!5270)) (or $x3516 (= S1_V1_!5255 S1_V1_!5264)) (or $x3063 (= S1_V1_!5270 S1_V1_!5255)) (or $x5173 (= S1_V1_!5270 S1_V1_!5264)) (or $x2012 (= S1_V3_!5250 S1_V3_!5256)) (or $x1224 (= S1_V3_!5250 S1_V3_!5265)) (or $x2876 (= S1_V3_!5250 S1_V3_!5271)) (or $x3516 (= S1_V3_!5256 S1_V3_!5265)) (or $x3791 (= S1_V3_!5256 S1_V3_!5271)) (or $x1834 (= S1_V3_!5265 S1_V3_!5271)) (or $x1224 (= S1_V2_!5251 S1_V2_!5266)) (or $x2876 (= S1_V2_!5251 S1_V2_!5272)) (or $x520 (= S1_V2_!5257 S1_V2_!5251)) (or $x3516 (= S1_V2_!5257 S1_V2_!5266)) (or $x3791 (= S1_V2_!5257 S1_V2_!5272)) (or $x1834 (= S1_V2_!5266 S1_V2_!5272)) $x549 $x6062 $x955 (or $x520 (= S1_V5_!5258 S1_V5_!5252)) (or $x3516 (= S1_V5_!5258 S1_V5_!5267)) (or (not $x3229) (= S1_V5_!5267 S1_V5_!5252)) (or $x386 (= S1_V5_!5273 S1_V5_!5252)) (or $x3063 (= S1_V5_!5273 S1_V5_!5258)) (or $x5173 (= S1_V5_!5273 S1_V5_!5267)) (= E2_!5248 E2_!5247) (or (not (or (not R_E2_V1) $x549)) (= E2_!5248 E2_!5262)) (or (not (or (not R_E2_V1) (= E1_!5261 E1_!5246))) (= E2_!5262 E2_!5247)) (or $x2012 (= S1_V4_!5253 S1_V4_!5259)) (or $x1224 (= S1_V4_!5253 S1_V4_!5268)) (or $x3516 (= S1_V4_!5259 S1_V4_!5268)) (or $x386 (= S1_V4_!5274 S1_V4_!5253)) (or $x3063 (= S1_V4_!5274 S1_V4_!5259)) (or $x5173 $x2407) (or $x1224 (= S1_V6_!5254 S1_V6_!5269)) (or $x2876 (= S1_V6_!5254 S1_V6_!5275)) (or $x520 (= S1_V6_!5260 S1_V6_!5254)) (or $x3516 $x3441) (or $x3791 $x2255) (or $x1834 $x1405) (or (not MW_S1_V1) W_S1_V1) (or (not MW_S1_V3) W_S1_V3) (or (not MW_S1_V2) W_S1_V2) (or (not MW_S1_V4) W_S1_V4) (or (not MW_S1_V6) W_S1_V6))))
 (or (not $x2756) (not $x4851) $x3394)))))))))))))))))))))))))))))))))))))))))))))))))))))))))
 )
 )
 )
 )
 )
 )
 )
 )
 )
 )
 )
 )
 )
 )
 )
 )
 )
 )
 )
 )
 )
 )
 )
 )
 )
 )
 )
 )
 )
 )
 )
 )
 )
 )
 )
 )
 )
 )
 )
 ))
 (let (($x1652 (and W_S1_V6 R_E1_V6)))
 (let (($x970 (and W_S1_V4 R_E1_V4)))
 (let (($x2733 (and W_S1_V2 R_E1_V2)))
 (let (($x3274 (= DISJ_W_S1_R_E1 (not (or $x2733 R_E1_V5 $x970 $x1652)))))
 (let (($x1116 (and W_S1_V6 R_S1_V6)))
 (let (($x5771 (and W_S1_V4 R_S1_V4)))
 (let (($x1780 (and W_S1_V2 R_S1_V2)))
 (let (($x4927 (and W_S1_V3 R_S1_V3)))
 (let (($x141 (and W_S1_V1 R_S1_V1)))
 (let (($x734 (= DISJ_W_S1_R_S1 (not (or $x141 $x4927 $x1780 R_S1_V5 $x5771 $x1116)))))
 (let (($x2424 (and W_S1_V6 R_E2_V6)))
 (let (($x2331 (and W_S1_V4 R_E2_V4)))
 (let (($x5954 (and W_S1_V2 R_E2_V2)))
 (let (($x227 (and W_S1_V1 R_E2_V1)))
 (let (($x3777 (= DISJ_W_S1_R_E2 (not (or $x227 $x5954 R_E2_V5 $x2331 $x2424)))))
 (let (($x723 (not R_E1_V3)))
 (let (($x3095 (not R_E1_V1)))
 (let (($x2523 (not R_E2_V3)))
 (and (and $x2523 $x3095 $x723 W_S1_V5 $x3777 $x734 $x3274 $x28) $x1795 $x3885)))))))))))))))))))))))
(check-sat)
